(set-logic ALL)
(declare-fun var0 () String)
(assert (str.in_re var0 (re.++ (re.+ (re.union (str.to_re "0") (str.to_re "1"))) (re.++ (re.+ (re.* (str.to_re "2"))) (re.++ (re.union (re.* (str.to_re "33")) (re.* (str.to_re "44"))) (re.++ (re.+ (re.+ (str.to_re "555"))) (re.++ (re.* (re.* (str.to_re "6"))) (re.++ (re.* (re.* (str.to_re "777"))) (re.++ (re.union (re.union (str.to_re "888") (str.to_re "999")) (re.union (str.to_re "aa") (str.to_re "bb"))) (re.++ (re.+ (re.+ (str.to_re "cc"))) (re.++ (re.* (re.union (str.to_re "ddd") (str.to_re "ee"))) (re.++ (re.+ (re.+ (str.to_re "f"))) (re.++ (re.* (re.* (str.to_re "gg"))) (re.++ (re.union (re.union (str.to_re "h") (str.to_re "i")) (re.union (str.to_re "jjj") (str.to_re "kk"))) (re.++ (re.+ (re.union (str.to_re "lll") (str.to_re "mm"))) (re.++ (re.+ (re.* (str.to_re "nn"))) (re.++ (re.union (re.* (str.to_re "ooo")) (re.* (str.to_re "pp"))) (re.++ (re.+ (re.union (str.to_re "q") (str.to_re "r"))) (re.++ (re.+ (re.+ (str.to_re "ss"))) (re.++ (re.union (re.union (str.to_re "t") (str.to_re "u")) (re.union (str.to_re "v") (str.to_re "ww"))) (re.++ (re.+ (re.union (str.to_re "xx") (str.to_re "yyy"))) (re.++ (re.union (re.union (str.to_re "zz") (str.to_re "AA")) (re.union (str.to_re "BBB") (str.to_re "C"))) (re.++ (re.union (re.union (str.to_re "D") (str.to_re "E")) (re.union (str.to_re "FFF") (str.to_re "G"))) (re.++ (re.+ (re.union (str.to_re "HHH") (str.to_re "III"))) (re.++ (re.+ (re.union (str.to_re "J") (str.to_re "KK"))) (re.++ (re.union (re.+ (str.to_re "L")) (re.+ (str.to_re "M"))) (re.++ (re.union (re.* (str.to_re "NNN")) (re.* (str.to_re "O"))) (re.++ (re.* (re.+ (str.to_re "PP"))) (re.++ (re.union (re.+ (str.to_re "QQQ")) (re.+ (str.to_re "RRR"))) (re.++ (re.union (re.+ (str.to_re "S")) (re.+ (str.to_re "TTT"))) (re.++ (re.+ (re.* (str.to_re "UUU"))) (re.++ (re.+ (re.union (str.to_re "V") (str.to_re "W"))) (re.++ (re.* (re.+ (str.to_re "XXX"))) (re.++ (re.union (re.union (str.to_re "YYY") (str.to_re "ZZZ")) (re.union (str.to_re "!!!") (str.to_re """"""))) (re.* (re.union (str.to_re "##") (str.to_re "$")))))))))))))))))))))))))))))))))))))
(check-sat)